\ LP format - for model browsing. Use MPS format to capture full model detail.
Minimize
  0.28 x(1,6) + 0.296 x(2,4) + 0.038 x(3,4) + 0.04 x(3,8) + 0.132 x(3,10)
   + 0.296 x(4,2) + 0.038 x(4,3) + 0.132 x(4,5) + 0.132 x(5,4)
   + 0.28 x(6,1) + 0.166 x(6,7) + 0.048 x(6,8) + 0.166 x(7,6) + 0.04 x(8,3)
   + 0.048 x(8,6) + 0.14 x(8,9) + 0.14 x(9,8) + 0.172 x(9,11)
   + 0.132 x(10,3) + 0.172 x(11,9) + 0.6484854120466632 x(12,13)
   + 0.584 x(12,14) + 0.584978377114732 x(12,15)
   + 0.6507209604321107 x(12,16) + 0.54 x(12,17)
   + 0.5627544162227249 x(12,18) + 0.564 x(12,19)
   + 0.5783143292054792 x(12,20) + 0.65 x(12,21)
   + 0.6596150997149434 x(12,22) + 0.6484854120466632 x(13,12)
   + 0.567 x(13,14) + 0.548 x(13,15) + 0.5620493751916372 x(13,16)
   + 0.5726991603917054 x(13,17) + 0.6538424708357528 x(13,18)
   + 0.5681933411285952 x(13,19) + 0.6378423847845459 x(13,20)
   + 0.5795689282698986 x(13,21) + 0.6460182920028509 x(13,22)
   + 0.584 x(14,12) + 0.567 x(14,13) + 0.2442105263157895 x(14,15)
   + 0.4010960610571719 x(14,16) + 0.3231578947368421 x(14,17)
   + 0.4808678036008832 x(14,18) + 0.2473684210526316 x(14,19)
   + 0.4141087333457006 x(14,20) + 0.3926315789473684 x(14,21)
   + 0.488025603472986 x(14,22) + 0.584978377114732 x(15,12)
   + 0.548 x(15,13) + 0.2442105263157895 x(15,14)
   + 0.3926315789473684 x(15,16) + 0.3355590353640643 x(15,17)
   + 0.5110855526159905 x(15,18) + 0.2713249319418972 x(15,19)
   + 0.4722721540711043 x(15,20) + 0.4010960610571719 x(15,21)
   + 0.5108016245368271 x(15,22) + 0.6507209604321107 x(16,12)
   + 0.5620493751916372 x(16,13) + 0.4010960610571719 x(16,14)
   + 0.3926315789473684 x(16,15) + 0.5116288493177279 x(16,17)
   + 0.5500133327407935 x(16,18) + 0.4623384189366836 x(16,19)
   + 0.5237618681177688 x(16,20) + 0.2442105263157895 x(16,21)
   + 0.4652631578947368 x(16,22) + 0.54 x(17,12)
   + 0.5726991603917054 x(17,13) + 0.3231578947368421 x(17,14)
   + 0.3355590353640643 x(17,15) + 0.5116288493177279 x(17,16)
   + 0.4463157894736842 x(17,18) + 0.26 x(17,19)
   + 0.4178947368421053 x(17,20) + 0.51 x(17,21)
   + 0.5303840481040529 x(17,22) + 0.5627544162227249 x(18,12)
   + 0.6538424708357528 x(18,13) + 0.4808678036008832 x(18,14)
   + 0.5110855526159905 x(18,15) + 0.5500133327407935 x(18,16)
   + 0.4463157894736842 x(18,17) + 0.4570533625721202 x(18,19)
   + 0.2704042782986706 x(18,20) + 0.537800580550301 x(18,21)
   + 0.5107655181001741 x(18,22) + 0.564 x(19,12)
   + 0.5681933411285952 x(19,13) + 0.2473684210526316 x(19,14)
   + 0.2713249319418972 x(19,15) + 0.4623384189366836 x(19,16)
   + 0.26 x(19,17) + 0.4570533625721202 x(19,18)
   + 0.4052631578947369 x(19,20) + 0.4557894736842105 x(19,21)
   + 0.5108873302050329 x(19,22) + 0.5783143292054792 x(20,12)
   + 0.6378423847845459 x(20,13) + 0.4141087333457006 x(20,14)
   + 0.4722721540711043 x(20,15) + 0.5237618681177688 x(20,16)
   + 0.4178947368421053 x(20,17) + 0.2704042782986706 x(20,18)
   + 0.4052631578947369 x(20,19) + 0.5108873302050329 x(20,21)
   + 0.4557894736842105 x(20,22) + 0.65 x(21,12)
   + 0.5795689282698986 x(21,13) + 0.3926315789473684 x(21,14)
   + 0.4010960610571719 x(21,15) + 0.2442105263157895 x(21,16)
   + 0.51 x(21,17) + 0.537800580550301 x(21,18)
   + 0.4557894736842105 x(21,19) + 0.5108873302050329 x(21,20)
   + 0.4052631578947369 x(21,22) + 0.6596150997149434 x(22,12)
   + 0.6460182920028509 x(22,13) + 0.488025603472986 x(22,14)
   + 0.5108016245368271 x(22,15) + 0.4652631578947368 x(22,16)
   + 0.5303840481040529 x(22,17) + 0.5107655181001741 x(22,18)
   + 0.5108873302050329 x(22,19) + 0.4557894736842105 x(22,20)
   + 0.4052631578947369 x(22,21)
Subject To
 Balance_nodo_inicial: x(0,1) + x(0,2) + x(0,3) + x(0,4) + x(0,5) + x(0,6)
   + x(0,7) + x(0,8) + x(0,9) + x(0,10) + x(0,11) + x(0,12) + x(0,13)
   + x(0,14) + x(0,15) + x(0,16) + x(0,17) + x(0,18) + x(0,19) + x(0,20)
   + x(0,21) + x(0,22) = 1
 Balance_nodo_1: - x(0,1) + x(1,6) + x(1,12) + x(1,23) - x(6,1) - x(12,1)
   = 0
 Balance_nodo_2: - x(0,2) + x(2,4) + x(2,13) + x(2,23) - x(4,2) - x(13,2)
   = 0
 Balance_nodo_3: - x(0,3) + x(3,4) + x(3,8) + x(3,10) + x(3,14) + x(3,23)
   - x(4,3) - x(8,3) - x(10,3) - x(14,3) = 0
 Balance_nodo_4: - x(0,4) - x(2,4) - x(3,4) + x(4,2) + x(4,3) + x(4,5)
   + x(4,15) + x(4,23) - x(5,4) - x(15,4) = 0
 Balance_nodo_5: - x(0,5) - x(4,5) + x(5,4) + x(5,16) + x(5,23) - x(16,5)
   = 0
 Balance_nodo_6: - x(0,6) - x(1,6) + x(6,1) + x(6,7) + x(6,8) + x(6,17)
   + x(6,23) - x(7,6) - x(8,6) - x(17,6) = 0
 Balance_nodo_7: - x(0,7) - x(6,7) + x(7,6) + x(7,18) + x(7,23) - x(18,7)
   = 0
 Balance_nodo_8: - x(0,8) - x(3,8) - x(6,8) + x(8,3) + x(8,6) + x(8,9)
   + x(8,19) + x(8,23) - x(9,8) - x(19,8) = 0
 Balance_nodo_9: - x(0,9) - x(8,9) + x(9,8) + x(9,11) + x(9,20) + x(9,23)
   - x(11,9) - x(20,9) = 0
 Balance_nodo_10: - x(0,10) - x(3,10) + x(10,3) + x(10,21) + x(10,23)
   - x(21,10) = 0
 Balance_nodo_11: - x(0,11) - x(9,11) + x(11,9) + x(11,22) + x(11,23)
   - x(22,11) = 0
 Balance_nodo_12: - x(0,12) - x(1,12) + x(12,1) + x(12,13) + x(12,14)
   + x(12,15) + x(12,16) + x(12,17) + x(12,18) + x(12,19) + x(12,20)
   + x(12,21) + x(12,22) + x(12,23) - x(13,12) - x(14,12) - x(15,12)
   - x(16,12) - x(17,12) - x(18,12) - x(19,12) - x(20,12) - x(21,12)
   - x(22,12) = 0
 Balance_nodo_13: - x(0,13) - x(2,13) - x(12,13) + x(13,2) + x(13,12)
   + x(13,14) + x(13,15) + x(13,16) + x(13,17) + x(13,18) + x(13,19)
   + x(13,20) + x(13,21) + x(13,22) + x(13,23) - x(14,13) - x(15,13)
   - x(16,13) - x(17,13) - x(18,13) - x(19,13) - x(20,13) - x(21,13)
   - x(22,13) = 0
 Balance_nodo_14: - x(0,14) - x(3,14) - x(12,14) - x(13,14) + x(14,3)
   + x(14,12) + x(14,13) + x(14,15) + x(14,16) + x(14,17) + x(14,18)
   + x(14,19) + x(14,20) + x(14,21) + x(14,22) + x(14,23) - x(15,14)
   - x(16,14) - x(17,14) - x(18,14) - x(19,14) - x(20,14) - x(21,14)
   - x(22,14) = 0
 Balance_nodo_15: - x(0,15) - x(4,15) - x(12,15) - x(13,15) - x(14,15)
   + x(15,4) + x(15,12) + x(15,13) + x(15,14) + x(15,16) + x(15,17)
   + x(15,18) + x(15,19) + x(15,20) + x(15,21) + x(15,22) + x(15,23)
   - x(16,15) - x(17,15) - x(18,15) - x(19,15) - x(20,15) - x(21,15)
   - x(22,15) = 0
 Balance_nodo_16: - x(0,16) - x(5,16) - x(12,16) - x(13,16) - x(14,16)
   - x(15,16) + x(16,5) + x(16,12) + x(16,13) + x(16,14) + x(16,15)
   + x(16,17) + x(16,18) + x(16,19) + x(16,20) + x(16,21) + x(16,22)
   + x(16,23) - x(17,16) - x(18,16) - x(19,16) - x(20,16) - x(21,16)
   - x(22,16) = 0
 Balance_nodo_17: - x(0,17) - x(6,17) - x(12,17) - x(13,17) - x(14,17)
   - x(15,17) - x(16,17) + x(17,6) + x(17,12) + x(17,13) + x(17,14)
   + x(17,15) + x(17,16) + x(17,18) + x(17,19) + x(17,20) + x(17,21)
   + x(17,22) + x(17,23) - x(18,17) - x(19,17) - x(20,17) - x(21,17)
   - x(22,17) = 0
 Balance_nodo_18: - x(0,18) - x(7,18) - x(12,18) - x(13,18) - x(14,18)
   - x(15,18) - x(16,18) - x(17,18) + x(18,7) + x(18,12) + x(18,13)
   + x(18,14) + x(18,15) + x(18,16) + x(18,17) + x(18,19) + x(18,20)
   + x(18,21) + x(18,22) + x(18,23) - x(19,18) - x(20,18) - x(21,18)
   - x(22,18) = 0
 Balance_nodo_19: - x(0,19) - x(8,19) - x(12,19) - x(13,19) - x(14,19)
   - x(15,19) - x(16,19) - x(17,19) - x(18,19) + x(19,8) + x(19,12)
   + x(19,13) + x(19,14) + x(19,15) + x(19,16) + x(19,17) + x(19,18)
   + x(19,20) + x(19,21) + x(19,22) + x(19,23) - x(20,19) - x(21,19)
   - x(22,19) = 0
 Balance_nodo_20: - x(0,20) - x(9,20) - x(12,20) - x(13,20) - x(14,20)
   - x(15,20) - x(16,20) - x(17,20) - x(18,20) - x(19,20) + x(20,9)
   + x(20,12) + x(20,13) + x(20,14) + x(20,15) + x(20,16) + x(20,17)
   + x(20,18) + x(20,19) + x(20,21) + x(20,22) + x(20,23) - x(21,20)
   - x(22,20) = 0
 Balance_nodo_21: - x(0,21) - x(10,21) - x(12,21) - x(13,21) - x(14,21)
   - x(15,21) - x(16,21) - x(17,21) - x(18,21) - x(19,21) - x(20,21)
   + x(21,10) + x(21,12) + x(21,13) + x(21,14) + x(21,15) + x(21,16)
   + x(21,17) + x(21,18) + x(21,19) + x(21,20) + x(21,22) + x(21,23)
   - x(22,21) = 0
 Balance_nodo_22: - x(0,22) - x(11,22) - x(12,22) - x(13,22) - x(14,22)
   - x(15,22) - x(16,22) - x(17,22) - x(18,22) - x(19,22) - x(20,22)
   - x(21,22) + x(22,11) + x(22,12) + x(22,13) + x(22,14) + x(22,15)
   + x(22,16) + x(22,17) + x(22,18) + x(22,19) + x(22,20) + x(22,21)
   + x(22,23) = 0
 Balance_nodo_final: - x(1,23) - x(2,23) - x(3,23) - x(4,23) - x(5,23)
   - x(6,23) - x(7,23) - x(8,23) - x(9,23) - x(10,23) - x(11,23) - x(12,23)
   - x(13,23) - x(14,23) - x(15,23) - x(16,23) - x(17,23) - x(18,23)
   - x(19,23) - x(20,23) - x(21,23) - x(22,23) = -1
 Corte_Unico_entre_1_y_6: x(1,6) + x(6,1) = 1
 Corte_Unico_entre_2_y_4: x(2,4) + x(4,2) = 1
 Corte_Unico_entre_3_y_4: x(3,4) + x(4,3) = 1
 Corte_Unico_entre_3_y_8: x(3,8) + x(8,3) = 1
 Corte_Unico_entre_3_y_10: x(3,10) + x(10,3) = 1
 Corte_Unico_entre_4_y_5: x(4,5) + x(5,4) = 1
 Corte_Unico_entre_6_y_7: x(6,7) + x(7,6) = 1
 Corte_Unico_entre_6_y_8: x(6,8) + x(8,6) = 1
 Corte_Unico_entre_8_y_9: x(8,9) + x(9,8) = 1
 Corte_Unico_entre_9_y_11: x(9,11) + x(11,9) = 1
Bounds
Binaries
 x(0,1) x(0,2) x(0,3) x(0,4) x(0,5) x(0,6) x(0,7) x(0,8) x(0,9) x(0,10)
 x(0,11) x(0,12) x(0,13) x(0,14) x(0,15) x(0,16) x(0,17) x(0,18) x(0,19)
 x(0,20) x(0,21) x(0,22) x(1,6) x(1,12) x(1,23) x(2,4) x(2,13) x(2,23)
 x(3,4) x(3,8) x(3,10) x(3,14) x(3,23) x(4,2) x(4,3) x(4,5) x(4,15) x(4,23)
 x(5,4) x(5,16) x(5,23) x(6,1) x(6,7) x(6,8) x(6,17) x(6,23) x(7,6) x(7,18)
 x(7,23) x(8,3) x(8,6) x(8,9) x(8,19) x(8,23) x(9,8) x(9,11) x(9,20)
 x(9,23) x(10,3) x(10,21) x(10,23) x(11,9) x(11,22) x(11,23) x(12,1)
 x(12,13) x(12,14) x(12,15) x(12,16) x(12,17) x(12,18) x(12,19) x(12,20)
 x(12,21) x(12,22) x(12,23) x(13,2) x(13,12) x(13,14) x(13,15) x(13,16)
 x(13,17) x(13,18) x(13,19) x(13,20) x(13,21) x(13,22) x(13,23) x(14,3)
 x(14,12) x(14,13) x(14,15) x(14,16) x(14,17) x(14,18) x(14,19) x(14,20)
 x(14,21) x(14,22) x(14,23) x(15,4) x(15,12) x(15,13) x(15,14) x(15,16)
 x(15,17) x(15,18) x(15,19) x(15,20) x(15,21) x(15,22) x(15,23) x(16,5)
 x(16,12) x(16,13) x(16,14) x(16,15) x(16,17) x(16,18) x(16,19) x(16,20)
 x(16,21) x(16,22) x(16,23) x(17,6) x(17,12) x(17,13) x(17,14) x(17,15)
 x(17,16) x(17,18) x(17,19) x(17,20) x(17,21) x(17,22) x(17,23) x(18,7)
 x(18,12) x(18,13) x(18,14) x(18,15) x(18,16) x(18,17) x(18,19) x(18,20)
 x(18,21) x(18,22) x(18,23) x(19,8) x(19,12) x(19,13) x(19,14) x(19,15)
 x(19,16) x(19,17) x(19,18) x(19,20) x(19,21) x(19,22) x(19,23) x(20,9)
 x(20,12) x(20,13) x(20,14) x(20,15) x(20,16) x(20,17) x(20,18) x(20,19)
 x(20,21) x(20,22) x(20,23) x(21,10) x(21,12) x(21,13) x(21,14) x(21,15)
 x(21,16) x(21,17) x(21,18) x(21,19) x(21,20) x(21,22) x(21,23) x(22,11)
 x(22,12) x(22,13) x(22,14) x(22,15) x(22,16) x(22,17) x(22,18) x(22,19)
 x(22,20) x(22,21) x(22,23)
End
